Version identifier: 20.1.0.0 | 2020-11-10 | 9bedb6d68
CPXPARAM_Threads                                 1
CPXPARAM_TimeLimit                               7200
CPXPARAM_MIP_Tolerances_MIPGap                   0
Generic callback                                 0x60
1 of 1 MIP starts provided solutions.
MIP start 'm1' defined initial solution with objective 1796.6442.
Tried aggregator 1 time.
Reduced MIP has 400501 rows, 400801 columns, and 1200800 nonzeros.
Reduced MIP has 800 binaries, 0 generals, 0 SOSs, and 0 indicators.
Presolve time = 0.42 sec. (379.65 ticks)
Probing time = 0.05 sec. (50.06 ticks)
Tried aggregator 1 time.
Reduced MIP has 400501 rows, 400801 columns, and 1200800 nonzeros.
Reduced MIP has 800 binaries, 0 generals, 0 SOSs, and 0 indicators.
Presolve time = 0.41 sec. (373.16 ticks)
Probing time = 0.05 sec. (50.06 ticks)
MIP emphasis: balance optimality and feasibility.
MIP search method: dynamic search.
Parallel mode: none, using 1 thread.
Root relaxation solution time = 0.12 sec. (154.23 ticks)

        Nodes                                         Cuts/
   Node  Left     Objective  IInf  Best Integer    Best Bound    ItCnt     Gap

*     0+    0                         1796.6442     2716.0000            51.17%
      0     0     1821.1574    12     1796.6442     2716.0000        0   51.17%
      0     2     1821.1574    12     1796.6442     1821.1574        0    1.36%
Elapsed time = 786.89 sec. (535037.00 ticks, tree = 0.01 MB, solutions = 1)
      1     3     1818.4441     2     1796.6442     1821.1572     5494    1.36%
      2     4     1819.6318    19     1796.6442     1819.6312    11103    1.28%
      3     5     1818.2281     2     1796.6442     1819.6312    12236    1.28%
      4     6     1818.2986     2     1796.6442     1819.6312    13165    1.28%
      5     7     1818.2744     2     1796.6442     1819.6312    18069    1.28%
      6     8     1817.7532     6     1796.6442     1819.6312    49238    1.28%
      7     9     1818.1600     6     1796.6442     1819.6312    59299    1.28%
      8    10     1817.5805     2     1796.6442     1819.6312    65741    1.28%
      9    11     1817.4925     4     1796.6442     1819.6312    67708    1.28%
*    10+   10                         1814.8144     1819.6312             0.27%
     10    12     1816.0351     2     1814.8144     1819.6312    69447    0.27%
Elapsed time = 1240.92 sec. (821296.47 ticks, tree = 13.67 MB, solutions = 2)
     11    13     1817.1675     2     1814.8144     1819.6312    72948    0.27%
*    12    10      integral     0     1817.0607     1819.6312    74246    0.14%
     13     9        cutoff           1817.0607     1819.6312    81214    0.14%
     14    10     1819.2300     9     1817.0607     1819.6307    96478    0.14%
     15    11     1819.0776     4     1817.0607     1819.6307   125029    0.14%
     16    12     1818.9995     2     1817.0607     1819.6307   126432    0.14%
     17    13     1818.9811     4     1817.0607     1819.6307   165711    0.14%
     18    14     1818.4162     2     1817.0607     1819.6307   166706    0.14%
     19    15     1818.2087     2     1817.0607     1819.6307   176018    0.14%
     20    14        cutoff           1817.0607     1819.6307   200199    0.14%
Elapsed time = 1458.07 sec. (948971.34 ticks, tree = 23.12 MB, solutions = 3)
     21    15     1818.1236     2     1817.0607     1819.6307   204942    0.14%
     22    14        cutoff           1817.0607     1819.6307   205519    0.14%
     23    15     1817.9388     2     1817.0607     1819.6307   212489    0.14%
     24    14        cutoff           1817.0607     1819.6307   213514    0.14%
     25    15     1817.8141     2     1817.0607     1819.6307   214127    0.14%
     26    14        cutoff           1817.0607     1819.6307   236503    0.14%
*    27    12      integral     0     1817.5616     1819.6307   237368    0.11%
     28    11        cutoff           1817.5616     1819.6307   260042    0.11%
     29    12     1819.2685    20     1817.5616     1819.2685   262455    0.09%
     30    13     1819.1138    19     1817.5616     1819.2684   304421    0.09%
Elapsed time = 1804.93 sec. (1250666.07 ticks, tree = 22.98 MB, solutions = 4)
     31    14     1819.0904    19     1817.5616     1819.2684   304990    0.09%
     32    15     1818.9892    22     1817.5616     1819.2684   306266    0.09%
     33    16     1818.6638    25     1817.5616     1819.2684   308490    0.09%
     34    17     1818.5716    29     1817.5616     1819.2684   309533    0.09%
     35    18     1818.4368    28     1817.5616     1819.2684   312102    0.09%
     36    19     1818.1621    22     1817.5616     1819.2684   314117    0.09%
     37    20     1817.8878    22     1817.5616     1819.2684   315794    0.09%
     38    19        cutoff           1817.5616     1819.2684   316717    0.09%
     39    18        cutoff           1817.5616     1819.2684   317239    0.09%
*    40+   15                         1817.8717     1819.2684             0.08%
     40    17     1818.3900     5     1817.8717     1819.2282   321751    0.07%
Elapsed time = 2176.27 sec. (1464867.24 ticks, tree = 20.49 MB, solutions = 5)
     41    18     1818.0936     2     1817.8717     1819.2282   324886    0.07%
     43    20     1817.9680     2     1817.8717     1819.2282   325982    0.07%
     44    19        cutoff           1817.8717     1819.2282   326874    0.07%
     46    19     1818.5302     6     1817.8717     1819.1136   330944    0.07%
     47    20     1818.1738     6     1817.8717     1819.1136   332269    0.07%
     48    19        cutoff           1817.8717     1819.1136   332628    0.07%
     49    18        cutoff           1817.8717     1819.1136   332959    0.07%
*    50+   15                         1818.1128     1819.1136             0.06%
     50    17     1818.7846     6     1818.1128     1819.0904   337266    0.05%
     51    18     1818.5562     8     1818.1128     1819.0904   343528    0.05%
     52    17        cutoff           1818.1128     1819.0904   345009    0.05%
Elapsed time = 2645.42 sec. (1742415.42 ticks, tree = 17.44 MB, solutions = 6)
     53    18     1818.4942     4     1818.1128     1819.0904   346300    0.05%
     54    19     1818.4188     2     1818.1128     1819.0904   352703    0.05%
     55    20     1818.4027     2     1818.1128     1819.0904   353950    0.05%
     56    19        cutoff           1818.1128     1819.0904   355894    0.05%
     57    20     1818.2142     2     1818.1128     1819.0904   361623    0.05%
     59    20     1818.1553     2     1818.1128     1819.0904   364921    0.05%
     60    19        cutoff           1818.1128     1819.0904   373131    0.05%
     62    17    infeasible           1818.1128     1819.0904   379652    0.05%
     63    18     1818.4784     5     1818.1128     1819.0744   398391    0.05%
     64    19     1818.3753     7     1818.1128     1819.0744   401213    0.05%
Elapsed time = 2848.82 sec. (1853799.87 ticks, tree = 17.73 MB, solutions = 6)
     65    18        cutoff           1818.1128     1819.0744   401529    0.05%
     66    17        cutoff           1818.1128     1819.0744   402514    0.05%
     67    16        cutoff           1818.1128     1818.9892   402653    0.05%
     68    17     1818.6638    10     1818.1128     1818.9811   405068    0.05%
     69    18     1818.6261     9     1818.1128     1818.9811   405186    0.05%
     70    19     1818.5280     8     1818.1128     1818.9811   405699    0.05%
     71    20     1818.3153    10     1818.1128     1818.9811   407621    0.05%
     72    19        cutoff           1818.1128     1818.9811   407899    0.05%
     73    18        cutoff           1818.1128     1818.9811   408908    0.05%
     74    19     1818.9698     2     1818.1128     1818.9809   409008    0.05%
Elapsed time = 3012.57 sec. (1945469.45 ticks, tree = 11.61 MB, solutions = 6)
     75    20     1818.7385     2     1818.1128     1818.9809   411475    0.05%
     76    21     1818.7271     2     1818.1128     1818.9809   411574    0.05%
     77    22     1818.6020     2     1818.1128     1818.9809   413160    0.05%
     78    23     1818.5804     2     1818.1128     1818.9809   413304    0.05%
     79    24     1818.4770     2     1818.1128     1818.9809   414624    0.05%
*    80    18      integral     0     1818.2855     1818.9809   416605    0.04%
     80    18     1818.2855     0     1818.2855     1818.9809   416605    0.04%
     81    17        cutoff           1818.2855     1818.9809   416738    0.04%
     82    16        cutoff           1818.2855     1818.9687   417083    0.04%
     83    15        cutoff           1818.2855     1818.7350   417432    0.02%
     84    14        cutoff           1818.2855     1818.7255   417643    0.02%
Elapsed time = 3146.32 sec. (2019063.89 ticks, tree = 1.87 MB, solutions = 7)
     85    13        cutoff           1818.2855     1818.6638   417779    0.02%
     86    12        cutoff           1818.2855     1818.6633   418800    0.02%
     87    13     1818.5679     6     1818.2855     1818.6257   420648    0.02%
     88    12        cutoff           1818.2855     1818.6257   421053    0.02%
     89    11        cutoff           1818.2855     1818.6257   422654    0.02%
     90    12     1818.3784     4     1818.2855     1818.6020   425894    0.02%
     91    11        cutoff           1818.2855     1818.6020   426565    0.02%
     93     9        cutoff           1818.2855     1818.5721   426756    0.02%
     94     8        cutoff           1818.2855     1818.5714   426864    0.02%
     95     7        cutoff           1818.2855     1818.5552   427379    0.01%
Elapsed time = 3298.03 sec. (2108827.08 ticks, tree = 0.87 MB, solutions = 7)
     96     6        cutoff           1818.2855     1818.5300   427807    0.01%
     97     7     1818.3890     2     1818.2855     1818.5275   429191    0.01%
     98     8     1818.2993     2     1818.2855     1818.5275   430579    0.01%
*    99     7      integral     0     1818.2856     1818.5275   430908    0.01%
    102     4        cutoff           1818.2856     1818.4779   431295    0.01%
    103     3        cutoff           1818.2856     1818.4364   431882    0.01%
    104     2        cutoff           1818.2856     1818.3897   432244    0.01%
    105     1        cutoff           1818.2856     1818.3887   432631    0.01%

User cuts applied:  11

Root node processing (before b&c):
  Real time             =  786.85 sec. (534999.89 ticks)
Sequential b&c:
  Real time             = 2596.21 sec. (1621891.53 ticks)
                          ------------
Total (root+branch&cut) = 3383.06 sec. (2156891.42 ticks)
@Parameters: 
is_S_cut                                true
is_add_all_yinF                         true
is_start_value                          true
is_usercut                              true
is_visualization                        false
uc_only_rootnode                        false

data                                    Qi
fn                                      data/Qi/instance_500_800.csv
mode                                    ZLP
solver                                  cplex

p                                       5
r                                       2

EPS                                     1.0e-06
EPS_vio                                 1.0e-04
beta                                    0.10
gap                                     0.00
nodelimit                               Inf
timelimit                               7200.00


@PrintInfos
ItCnt: 432695
Current gap: 0.00 %
Termination Status: OPTIMAL
Primal Status: FEASIBLE_POINT
Solve Time: 3383.06 sec
Objective Value: 1818.285579
Number of Nodes:    107

CutInfo: [phase] num / time (sec) 
ZLP             [phase1]     0 / 0.00 [rLC]     4 / 10.65 [rUC]     2 / 3.85 [sLC]     0 / 13.47 [sUC]     9 / 255.83 
OldSubmodular   [phase1]     0 / 0.00 [rLC]     0 / 0.00 [rUC]     0 / 0.00 [sLC]     0 / 0.00 [sUC]     0 / 0.00 
NewSubmodular   [phase1]     0 / 0.00 [rLC]     0 / 0.00 [rUC]     0 / 0.00 [sLC]     0 / 0.00 [sUC]     0 / 0.00 
PMP             [phase1]     0 / 0.00 [rLC]     5 / 7.60 [rUC]     2 / 2.67 [sLC]     7 / 12.10 [sUC]   125 / 215.99 
Separation Round: [phase1] 0  [rLC] 5  [rUC] 2  [sLC] 7  [sUC] 125
Root Best Bound 1819.631234
Root Best Integer: 1796.644204
Best Bound: 1818.285579
Best Integer: 1818.285579

